NAME: random_10_2
TYPE: TSP
COMMENT: random_10_2
DIMENSION: 10
EDGE_WEIGHT_TYPE: EUC_2D
NODE_COORD_SECTION
1 205 428
2 487 385
3 43 287
4 465 312
5 231 68
6 427 315
7 343 466
8 462 197
9 406 488
10 91 326
